NAME          ClpDefau
ROWS
 N  OBJROW
 L  R_244_0
 L  R_244_1
 L  R_244_2
 L  R_244_3
 L  R_244_4
 L  R_244_5
 L  R_244_6
 L  R_244_7
 L  R_244_8
 L  R_244_9
 L  R_244_10
 L  R_244_11
 L  R_244_12
 L  R_244_13
 L  R_244_14
 L  R_244_15
COLUMNS
    x_0       OBJROW     -8.           R_244_0   68.         
    x_0       R_244_1   23.            R_244_2   4.          
    x_0       R_244_3   23.            R_244_4   66.         
    x_0       R_244_5   66.            R_244_6   24.         
    x_0       R_244_8   54.            R_244_9   98.         
    x_0       R_244_10  76.            R_244_11  58.         
    x_0       R_244_12  97.            R_244_13  95.         
    x_0       R_244_14  68.            R_244_15  36.         
    x_1       OBJROW     -12.          R_244_1   46.         
    x_1       R_244_2   59.            R_244_4   73.         
    x_1       R_244_5   72.            R_244_6   63.         
    x_1       R_244_7   42.            R_244_11  99.         
    x_1       R_244_13  91.            R_244_15  65.         
    x_2       OBJROW     -11.          R_244_0   76.         
    x_2       R_244_1   94.            R_244_2   66.         
    x_2       R_244_3   88.            R_244_4   10.         
    x_2       R_244_5   44.            R_244_6   25.         
    x_2       R_244_8   74.            R_244_9   35.         
    x_2       R_244_10  88.            R_244_12  67.         
    x_2       R_244_13  35.            R_244_14  27.         
    x_3       OBJROW     -47.          R_244_0   92.         
    x_3       R_244_1   8.             R_244_2   23.         
    x_3       R_244_3   4.             R_244_4   9.          
    x_3       R_244_5   94.            R_244_7   17.         
    x_3       R_244_9   24.            R_244_10  1.          
    x_3       R_244_11  6.             R_244_12  32.         
    x_3       R_244_13  5.             R_244_14  79.         
    x_3       R_244_15  96.         
    x_4       OBJROW     -22.          R_244_0   44.         
    x_4       R_244_1   40.            R_244_2   99.         
    x_4       R_244_3   6.             R_244_5   80.         
    x_4       R_244_6   61.            R_244_8   88.         
    x_4       R_244_9   14.            R_244_10  17.         
    x_4       R_244_11  100.           R_244_12  66.         
    x_4       R_244_13  44.            R_244_14  78.         
    x_5       OBJROW     -95.          R_244_0   90.         
    x_5       R_244_1   18.            R_244_2   33.         
    x_5       R_244_3   21.            R_244_4   59.         
    x_5       R_244_5   66.            R_244_7   5.          
    x_5       R_244_9   57.            R_244_10  11.         
    x_5       R_244_11  80.            R_244_12  80.         
    x_5       R_244_13  33.            R_244_14  36.         
    x_5       R_244_15  1.          
    x_6       OBJROW     -86.          R_244_0   50.         
    x_6       R_244_1   15.            R_244_2   12.         
    x_6       R_244_3   13.            R_244_4   97.         
    x_6       R_244_5   28.            R_244_6   86.         
    x_6       R_244_7   40.            R_244_8   49.         
    x_6       R_244_9   98.            R_244_11  56.         
    x_6       R_244_12  3.             R_244_13  7.          
    x_7       OBJROW     -40.          R_244_0   13.         
    x_7       R_244_1   62.            R_244_2   67.         
    x_7       R_244_4   47.            R_244_5   48.         
    x_7       R_244_6   88.            R_244_7   14.         
    x_7       R_244_8   100.           R_244_9   3.          
    x_7       R_244_11  82.            R_244_12  27.         
    x_7       R_244_14  1.             R_244_15  48.         
    x_8       OBJROW     -33.          R_244_0   93.         
    x_8       R_244_1   97.            R_244_2   15.         
    x_8       R_244_3   51.            R_244_4   18.         
    x_8       R_244_5   51.            R_244_7   16.         
    x_8       R_244_8   43.            R_244_9   28.         
    x_8       R_244_10  4.             R_244_11  61.         
    x_8       R_244_12  93.            R_244_13  38.         
    x_8       R_244_14  59.            R_244_15  48.         
    x_9       OBJROW     -78.          R_244_0   68.         
    x_9       R_244_2   94.            R_244_6   30.         
    x_9       R_244_7   77.            R_244_8   55.         
    x_9       R_244_9   90.            R_244_11  74.         
    x_9       R_244_12  46.            R_244_13  70.         
    x_9       R_244_14  54.         
    x_10      OBJROW     -28.          R_244_0   88.         
    x_10      R_244_2   17.            R_244_4   91.         
    x_10      R_244_5   88.            R_244_6   23.         
    x_10      R_244_7   15.            R_244_8   97.         
    x_10      R_244_9   43.            R_244_10  92.         
    x_10      R_244_11  22.            R_244_13  91.         
    x_10      R_244_14  46.            R_244_15  74.         
    x_11      OBJROW     -78.          R_244_0   60.         
    x_11      R_244_1   4.             R_244_3   95.         
    x_11      R_244_4   66.            R_244_5   36.         
    x_11      R_244_6   91.            R_244_7   53.         
    x_11      R_244_8   61.            R_244_9   71.         
    x_11      R_244_10  96.            R_244_12  93.         
    x_11      R_244_13  80.            R_244_14  86.         
    x_11      R_244_15  82.         
    x_12      OBJROW     -5.           R_244_1   68.         
    x_12      R_244_2   60.            R_244_3   13.         
    x_12      R_244_4   28.            R_244_5   78.         
    x_12      R_244_6   28.            R_244_8   72.         
    x_12      R_244_9   26.            R_244_10  76.         
    x_12      R_244_11  63.            R_244_13  79.         
    x_12      R_244_14  62.            R_244_15  73.         
    x_13      OBJROW     -75.          R_244_0   92.         
    x_13      R_244_1   98.            R_244_2   1.          
    x_13      R_244_4   86.            R_244_5   97.         
    x_13      R_244_6   87.            R_244_8   65.         
    x_13      R_244_9   11.            R_244_10  45.         
    x_13      R_244_11  97.            R_244_14  81.         
    x_13      R_244_15  93.         
    x_14      OBJROW     -88.          R_244_0   21.         
    x_14      R_244_1   60.            R_244_2   20.         
    x_14      R_244_3   72.            R_244_4   1.          
    x_14      R_244_5   69.            R_244_7   27.         
    x_14      R_244_9   84.            R_244_10  89.         
    x_14      R_244_11  39.            R_244_12  41.         
    x_14      R_244_13  83.            R_244_15  83.         
    x_15      OBJROW     -21.          R_244_0   12.         
    x_15      R_244_1   27.            R_244_2   68.         
    x_15      R_244_4   65.            R_244_5   40.         
    x_15      R_244_6   59.            R_244_7   67.         
    x_15      R_244_8   15.            R_244_9   49.         
    x_15      R_244_11  46.            R_244_12  59.         
    x_15      R_244_13  64.            R_244_14  38.         
    x_15      R_244_15  18.         
    x_16      OBJROW     -56.          R_244_1   82.         
    x_16      R_244_2   35.            R_244_3   13.         
    x_16      R_244_5   97.            R_244_6   48.         
    x_16      R_244_7   18.            R_244_8   30.         
    x_16      R_244_9   71.            R_244_10  52.         
    x_16      R_244_12  36.            R_244_15  89.         
    x_17      OBJROW     -82.          R_244_0   42.         
    x_17      R_244_1   97.            R_244_2   91.         
    x_17      R_244_4   92.            R_244_5   80.         
    x_17      R_244_6   10.            R_244_7   51.         
    x_17      R_244_8   34.            R_244_10  62.         
    x_17      R_244_11  24.            R_244_12  49.         
    x_17      R_244_13  4.             R_244_14  22.         
    x_17      R_244_15  94.         
    x_18      OBJROW     -51.          R_244_0   56.         
    x_18      R_244_1   42.            R_244_2   77.         
    x_18      R_244_3   37.            R_244_4   20.         
    x_18      R_244_5   26.            R_244_7   19.         
    x_18      R_244_8   43.            R_244_9   54.         
    x_18      R_244_10  12.            R_244_11  32.         
    x_18      R_244_12  94.            R_244_13  44.         
    x_18      R_244_15  79.         
    x_19      OBJROW     -93.          R_244_0   19.         
    x_19      R_244_1   9.             R_244_2   100.        
    x_19      R_244_3   42.            R_244_4   15.         
    x_19      R_244_5   99.            R_244_6   51.         
    x_19      R_244_7   7.             R_244_8   61.         
    x_19      R_244_9   41.            R_244_10  80.         
    x_19      R_244_11  76.            R_244_12  86.         
    x_20      OBJROW     -66.          R_244_0   53.         
    x_20      R_244_1   58.            R_244_2   14.         
    x_20      R_244_3   76.            R_244_4   88.         
    x_20      R_244_5   23.            R_244_6   40.         
    x_20      R_244_7   91.            R_244_8   14.         
    x_20      R_244_9   29.            R_244_10  19.         
    x_20      R_244_11  12.            R_244_12  84.         
    x_20      R_244_13  61.            R_244_14  62.         
    x_20      R_244_15  4.          
    x_21      OBJROW     -48.          R_244_0   65.         
    x_21      R_244_1   7.             R_244_2   1.          
    x_21      R_244_4   88.            R_244_5   31.         
    x_21      R_244_6   63.            R_244_7   70.         
    x_21      R_244_8   14.            R_244_9   7.          
    x_21      R_244_10  81.            R_244_11  80.         
    x_21      R_244_12  51.            R_244_14  65.         
    x_21      R_244_15  87.         
    x_22      OBJROW     -70.          R_244_0   14.         
    x_22      R_244_2   27.            R_244_3   26.         
    x_22      R_244_4   56.            R_244_5   17.         
    x_22      R_244_6   39.            R_244_8   61.         
    x_22      R_244_9   68.            R_244_10  36.         
    x_22      R_244_11  90.            R_244_12  71.         
    x_22      R_244_13  4.             R_244_14  97.         
    x_22      R_244_15  25.         
    x_23      OBJROW     -57.          R_244_0   6.          
    x_23      R_244_1   81.            R_244_2   34.         
    x_23      R_244_3   61.            R_244_4   95.         
    x_23      R_244_5   29.            R_244_7   5.          
    x_23      R_244_8   14.            R_244_9   89.         
    x_23      R_244_10  24.            R_244_11  12.         
    x_23      R_244_14  38.         
    x_24      OBJROW     -65.          R_244_0   42.         
    x_24      R_244_1   36.            R_244_3   9.          
    x_24      R_244_4   54.            R_244_5   5.          
    x_24      R_244_6   85.            R_244_8   94.         
    x_24      R_244_9   3.             R_244_10  43.         
    x_24      R_244_11  94.            R_244_12  68.         
    x_24      R_244_13  26.            R_244_14  17.         
    x_24      R_244_15  58.         
    x_25      OBJROW     -35.          R_244_2   79.         
    x_25      R_244_3   25.            R_244_4   57.         
    x_25      R_244_5   61.            R_244_7   10.         
    x_25      R_244_8   78.            R_244_9   61.         
    x_25      R_244_10  79.            R_244_11  74.         
    x_25      R_244_13  40.            R_244_15  39.         
    x_26      OBJROW     -5.           R_244_0   4.          
    x_26      R_244_1   41.            R_244_2   69.         
    x_26      R_244_3   93.            R_244_4   57.         
    x_26      R_244_5   61.            R_244_7   75.         
    x_26      R_244_8   28.            R_244_9   78.         
    x_26      R_244_10  93.            R_244_11  76.         
    x_26      R_244_12  36.            R_244_13  64.         
    x_26      R_244_14  31.            R_244_15  39.         
    x_27      OBJROW     -4.           R_244_2   80.         
    x_27      R_244_3   43.            R_244_4   90.         
    x_27      R_244_5   53.            R_244_6   28.         
    x_27      R_244_7   34.            R_244_8   18.         
    x_27      R_244_10  56.            R_244_11  59.         
    x_27      R_244_12  61.            R_244_14  31.         
    x_27      R_244_15  69.         
    x_28      OBJROW     -47.          R_244_0   12.         
    x_28      R_244_1   70.            R_244_2   7.          
    x_28      R_244_3   56.            R_244_4   66.         
    x_28      R_244_5   47.            R_244_6   67.         
    x_28      R_244_8   9.             R_244_9   95.         
    x_28      R_244_10  36.            R_244_11  62.         
    x_28      R_244_12  84.            R_244_13  42.         
    x_28      R_244_14  7.             R_244_15  83.         
    x_29      OBJROW     -60.          R_244_0   98.         
    x_29      R_244_1   72.            R_244_2   87.         
    x_29      R_244_3   56.            R_244_4   5.          
    x_29      R_244_5   85.            R_244_6   7.          
    x_29      R_244_8   44.            R_244_9   13.         
    x_29      R_244_10  14.            R_244_11  45.         
    x_29      R_244_12  82.            R_244_13  62.         
    x_29      R_244_15  20.         
    x_30      OBJROW     -41.          R_244_0   44.         
    x_30      R_244_1   82.            R_244_2   87.         
    x_30      R_244_4   7.             R_244_6   70.         
    x_30      R_244_7   99.            R_244_8   54.         
    x_30      R_244_9   24.            R_244_10  6.          
    x_30      R_244_11  98.            R_244_14  38.         
    x_30      R_244_15  6.          
    x_31      OBJROW     -49.          R_244_1   29.         
    x_31      R_244_2   47.            R_244_3   77.         
    x_31      R_244_5   71.            R_244_6   1.          
    x_31      R_244_7   11.            R_244_8   36.         
    x_31      R_244_9   29.            R_244_10  67.         
    x_31      R_244_13  17.            R_244_14  17.         
    x_31      R_244_15  48.         
RHS
    RHS       R_244_0   1307.          R_244_1   1572.       
    RHS       R_244_2   1373.          R_244_3   1544.       
    RHS       R_244_4   1698.          R_244_5   1505.       
    RHS       R_244_6   1503.          R_244_7   1586.       
    RHS       R_244_8   1700.          R_244_9   1689.       
    RHS       R_244_10  1611.          R_244_11  1508.       
    RHS       R_244_12  1363.          R_244_13  1533.       
    RHS       R_244_14  1584.          R_244_15  1345.       
BOUNDS
 UI BOUND     x_0       100.        
 UI BOUND     x_1       100.        
 UI BOUND     x_2       100.        
 UI BOUND     x_3       100.        
 UI BOUND     x_4       100.        
 UI BOUND     x_5       100.        
 UI BOUND     x_6       100.        
 UI BOUND     x_7       100.        
 UI BOUND     x_8       100.        
 UI BOUND     x_9       100.        
 UI BOUND     x_10      100.        
 UI BOUND     x_11      100.        
 UI BOUND     x_12      100.        
 UI BOUND     x_13      100.        
 UI BOUND     x_14      100.        
 UI BOUND     x_15      100.        
 UI BOUND     x_16      100.        
 UI BOUND     x_17      100.        
 UI BOUND     x_18      100.        
 UI BOUND     x_19      100.        
 UI BOUND     x_20      100.        
 UI BOUND     x_21      100.        
 UI BOUND     x_22      100.        
 UI BOUND     x_23      100.        
 UI BOUND     x_24      100.        
 UI BOUND     x_25      100.        
 UI BOUND     x_26      100.        
 UI BOUND     x_27      100.        
 UI BOUND     x_28      100.        
 UI BOUND     x_29      100.        
 UI BOUND     x_30      100.        
 UI BOUND     x_31      100.        
ENDATA
